p tw 30 46
e 0 5
e 0 26
e 1 4
e 1 20
e 1 21
e 2 12
e 2 20
e 2 26
e 3 15
e 3 16
e 3 21
e 3 25
e 3 26
e 4 5
e 4 17
e 4 23
e 5 6
e 5 16
e 6 9
e 6 13
e 6 18
e 6 25
e 6 27
e 7 20
e 7 21
e 8 9
e 8 12
e 8 20
e 8 28
e 9 24
e 10 11
e 11 16
e 11 25
e 12 15
e 12 16
e 14 21
e 15 16
e 15 22
e 16 27
e 16 28
e 17 19
e 18 26
e 19 26
e 19 28
e 23 25
e 28 29
